sat
(:max-memory          18.22
 :memory              17.65
 :num-allocs          7832477
 :rlimit-count        84989
 :sls-constraints     694
 :sls-ddfw-flips      27645.00
 :sls-ddfw-reinits    2
 :sls-ddfw-restarts   29
 :sls-ddfw-shifts     13160.00
 :sls.euf-conflict    694
 :solve-eqs-elim-vars 4
 :solve-eqs-steps     8
 :time                0.05
 :total-time          0.05)
